\ Model Calcul_Borne_Sup_U
\ LP format - for model browsing. Use MPS format to capture full model detail.
Maximize
  0.3936567902565002 C2 - 3.009989738464355 C3 + 5.603673458099365 Constant
Subject To
 R0: C0 <= 8.899532318115234
 R1: C0 >= -1.100467920303345
 R2: C1 <= 5.784293174743652
 R3: C1 >= -4.215706825256348
 R4: 0.3094948530197144 C0 + 0.0461927764117718 C1 + C2
   >= 0.1512775123119354
 R5: 0.0465802313041034 C0 + 0.00695220029944085 C1 + C2
   <= 0.4775237298137134
 R6: 2.472066402435303 C0 - 3.339637041091919 C1 + C3 >= 1.378510594367981
 R7: 0.9374029027644133 C0 - 1.266384047538162 C1 + C3
   <= 14.20388025269944
Bounds
 C0 >= -1.110467920303345
 C1 >= -4.225706765651703
 C2 >= -3.031552085876465
 C3 >= -36.08916641235351
 Constant = 1
End
